p cnf 8 81
1 0
-3 2 0
-4 2 0
-2 3 0
-4 3 0
-2 4 0
-3 4 0
-2 -3 -4 5 0
-1 2 3 5 0
-1 2 -4 5 0
1 2 -5 0
-3 2 1 -5 0
1 3 -5 0
-2 3 1 -5 0
1 4 -5 0
-2 4 1 -5 0
-3 4 1 -5 0
1 3 -2 -5 0
-2 3 -5 0
1 4 -2 -5 0
-2 4 -5 0
-3 4 -2 -5 0
1 2 4 -5 0
-3 2 4 -5 0
1 3 4 -5 0
-2 3 4 -5 0
-3 4 -5 0
1 -2 6 0
1 -3 4 6 0
-1 -6 0
3 -1 -6 0
-4 -1 -6 0
-1 2 -6 0
3 2 -6 0
-4 2 -6 0
2 -3 4 7 0
1 -2 -4 7 0
-2 -3 -4 7 0
-1 2 4 7 0
2 3 1 -7 0
4 3 2 1 -7 0
2 -4 1 -7 0
4 -2 3 1 -7 0
4 3 1 -7 0
2 -4 3 1 -7 0
4 -2 1 -7 0
2 3 4 1 -7 0
-1 -2 3 -7 0
4 -2 3 -7 0
-1 3 -2 -7 0
4 3 -2 -7 0
-1 -4 3 -2 -7 0
-1 -2 4 -7 0
4 -2 -7 0
-1 3 4 -2 -7 0
-1 3 2 -4 -7 0
2 3 -4 -7 0
-1 -4 2 -7 0
2 -4 -7 0
-1 -2 3 -4 -7 0
-1 3 -4 -7 0
-1 -4 3 -7 0
2 -4 3 -7 0
1 -2 3 8 0
1 -2 -4 8 0
-1 -3 -4 8 0
2 1 -8 0
4 2 1 -8 0
2 -3 1 -8 0
4 -3 1 -8 0
-1 3 -8 0
2 -1 3 -8 0
4 -1 3 -8 0
2 3 -8 0
4 2 3 -8 0
-1 4 -8 0
2 -1 4 -8 0
2 4 -8 0
-1 -3 4 -8 0
2 -3 4 -8 0
4 -3 -8 0